
  24    0


   0  13 2 3 4 5 6 7 9 10 11 12 21 22 23 
   6   4 17 15 14 13 
   2   3 20 19 18 
   8   3 18 17 14 
  10   3 16 14 13 
   2   2 13 8 
   9   2 14 13 
   2   1 15 
   1   1 17 
  10   1 16 
  10   1 16 
   8   1 15 
   4   1 24
   4   1 24
   5   1 24
   3   1 24
   4   1 24
   3   1 24
   9   1 24
   3   1 24
   4   1 24
  10   1 24
   6   1 24
   0   0 
